p edge 100 467
e 1 5
e 1 21
e 1 24
e 1 38
e 1 56
e 1 88
e 1 89
e 1 91
e 1 99
e 2 17
e 2 19
e 2 22
e 2 67
e 3 5
e 3 8
e 3 11
e 3 20
e 3 37
e 3 64
e 3 68
e 3 96
e 4 6
e 4 7
e 4 23
e 4 60
e 4 67
e 4 68
e 4 70
e 4 73
e 4 77
e 4 79
e 4 80
e 4 81
e 4 82
e 4 96
e 5 7
e 5 10
e 5 19
e 5 24
e 5 28
e 5 39
e 5 41
e 5 59
e 5 60
e 5 61
e 5 63
e 5 70
e 6 11
e 6 18
e 6 24
e 6 43
e 6 51
e 6 52
e 6 55
e 6 70
e 6 72
e 6 93
e 6 95
e 6 96
e 7 11
e 7 18
e 7 20
e 7 33
e 7 47
e 7 48
e 7 69
e 7 74
e 7 78
e 7 81
e 7 92
e 8 15
e 8 27
e 8 33
e 8 41
e 8 48
e 8 67
e 8 75
e 8 85
e 8 88
e 8 94
e 8 97
e 9 23
e 9 24
e 9 34
e 9 36
e 9 37
e 9 38
e 9 41
e 9 53
e 9 61
e 9 62
e 9 67
e 9 82
e 9 91
e 10 21
e 10 24
e 10 33
e 10 36
e 10 47
e 10 51
e 10 53
e 10 56
e 11 12
e 11 45
e 11 52
e 11 70
e 11 74
e 11 81
e 11 90
e 12 17
e 12 28
e 12 45
e 12 75
e 12 92
e 13 18
e 13 32
e 13 44
e 13 51
e 13 60
e 13 71
e 13 76
e 14 31
e 14 38
e 14 42
e 14 64
e 14 70
e 14 85
e 14 93
e 14 95
e 15 28
e 15 31
e 15 33
e 15 61
e 15 77
e 16 22
e 16 60
e 16 61
e 16 72
e 16 75
e 16 84
e 16 89
e 16 93
e 16 99
e 17 25
e 17 52
e 17 55
e 17 64
e 17 69
e 17 71
e 17 94
e 18 24
e 18 30
e 18 32
e 18 36
e 18 42
e 18 53
e 18 62
e 18 66
e 18 79
e 18 91
e 18 93
e 18 94
e 19 32
e 19 42
e 19 47
e 19 99
e 19 100
e 20 26
e 20 36
e 20 37
e 20 54
e 20 69
e 20 71
e 20 83
e 20 90
e 21 30
e 21 31
e 21 48
e 21 69
e 21 87
e 22 24
e 22 36
e 22 43
e 22 45
e 22 52
e 22 70
e 22 71
e 22 75
e 22 77
e 22 92
e 23 41
e 23 46
e 23 51
e 23 67
e 23 75
e 23 81
e 23 92
e 23 99
e 23 100
e 24 29
e 24 34
e 24 47
e 24 65
e 24 81
e 25 36
e 25 37
e 25 38
e 25 69
e 25 88
e 26 37
e 26 39
e 26 57
e 26 66
e 26 70
e 26 72
e 26 93
e 26 95
e 26 96
e 27 42
e 27 49
e 27 65
e 27 78
e 27 86
e 28 30
e 28 41
e 28 54
e 28 60
e 28 61
e 28 65
e 28 68
e 28 74
e 28 82
e 29 42
e 29 43
e 29 49
e 29 74
e 29 87
e 29 100
e 30 34
e 30 45
e 30 48
e 30 81
e 30 83
e 30 90
e 31 54
e 31 73
e 31 76
e 31 81
e 31 82
e 31 90
e 31 94
e 31 99
e 32 35
e 32 44
e 32 48
e 32 50
e 32 58
e 32 69
e 32 71
e 32 74
e 32 81
e 32 87
e 32 89
e 33 41
e 33 43
e 33 48
e 33 56
e 33 57
e 33 58
e 33 71
e 33 72
e 33 78
e 33 87
e 33 94
e 34 40
e 34 50
e 34 76
e 34 84
e 34 86
e 35 69
e 35 79
e 35 80
e 35 88
e 36 41
e 36 45
e 36 50
e 36 60
e 36 71
e 36 100
e 37 41
e 37 48
e 37 81
e 38 42
e 39 46
e 39 66
e 39 76
e 39 81
e 39 100
e 40 46
e 40 53
e 40 76
e 40 89
e 40 96
e 41 46
e 41 58
e 41 71
e 41 73
e 41 91
e 41 94
e 41 95
e 41 100
e 42 44
e 42 51
e 42 53
e 42 66
e 42 67
e 42 95
e 43 44
e 43 46
e 43 73
e 43 95
e 44 48
e 44 63
e 44 71
e 44 84
e 45 46
e 45 51
e 45 62
e 45 67
e 46 65
e 46 72
e 46 86
e 46 97
e 47 65
e 47 71
e 47 74
e 47 78
e 47 80
e 47 81
e 47 85
e 48 59
e 48 64
e 48 70
e 48 79
e 48 90
e 48 99
e 49 54
e 49 58
e 49 72
e 49 76
e 49 80
e 49 84
e 50 70
e 50 71
e 50 73
e 50 85
e 51 67
e 51 81
e 51 89
e 51 97
e 52 66
e 52 74
e 52 81
e 52 86
e 52 96
e 53 55
e 53 70
e 53 91
e 54 60
e 54 68
e 54 92
e 55 62
e 55 69
e 55 70
e 55 72
e 55 76
e 55 93
e 56 58
e 56 76
e 56 79
e 56 88
e 56 90
e 57 58
e 57 64
e 57 80
e 57 94
e 58 70
e 58 73
e 58 81
e 58 84
e 58 94
e 59 81
e 59 83
e 60 67
e 60 76
e 60 79
e 60 92
e 60 96
e 61 69
e 61 73
e 61 74
e 61 77
e 61 87
e 61 94
e 62 68
e 62 93
e 63 64
e 63 65
e 63 70
e 63 92
e 64 72
e 64 91
e 65 77
e 65 84
e 65 87
e 65 91
e 66 76
e 66 80
e 66 81
e 66 96
e 67 71
e 67 96
e 68 69
e 69 83
e 69 89
e 69 97
e 70 77
e 70 97
e 71 78
e 72 94
e 73 85
e 74 98
e 75 85
e 75 89
e 76 78
e 76 92
e 76 97
e 77 78
e 77 90
e 77 93
e 77 97
e 78 95
e 78 98
e 78 100
e 79 80
e 80 86
e 80 91
e 80 93
e 80 99
e 81 87
e 82 89
e 82 97
e 83 84
e 83 85
e 83 87
e 83 89
e 86 91
e 86 97
e 88 89
e 88 99
e 91 96
e 92 95
e 92 97
e 92 100
e 93 98
e 95 98
e 97 99
